30
3 0 2
3 2 1
4 2 2
4 3 1
5 1 3
6 0 1
6 1 2
6 2 3
6 3 4
6 5 3
7 2 1
7 3 1
7 6 2
8 1 2
8 2 1
8 4 2
8 5 1
9 1 2
9 2 2
9 5 2
9 6 2
9 7 4
9 8 4
10 0 2
10 5 4
10 6 1
10 7 3
10 9 4
11 1 3
11 3 1
11 4 3
11 6 3
11 9 4
11 10 3
12 1 3
12 2 4
12 3 2
12 4 3
12 5 1
12 7 3
12 8 3
12 9 1
12 10 2
12 11 2
13 0 1
13 1 1
13 3 2
13 8 3
13 9 2
14 4 1
14 5 2
14 6 1
14 9 1
14 10 1
14 12 2
14 13 4
15 1 1
15 2 2
15 3 3
15 4 2
15 5 3
15 6 4
15 8 4
15 10 2
15 12 4
15 14 1
16 2 1
16 3 4
16 5 3
16 8 3
16 9 2
16 10 2
17 3 2
17 8 1
17 9 4
17 10 3
17 11 1
17 12 3
17 13 4
17 14 1
18 0 2
18 3 3
18 4 2
18 5 1
18 7 4
18 8 3
18 10 4
18 11 4
18 12 1
18 13 3
18 14 2
18 15 1
18 16 1
18 17 1
19 1 4
19 3 2
19 5 3
19 8 3
19 11 4
19 13 3
19 15 2
19 16 3
19 17 1
19 18 3
20 0 1
20 1 2
20 3 3
20 5 2
20 9 3
20 10 1
20 12 1
20 17 1
20 18 1
20 19 3
21 0 2
21 2 4
21 4 3
21 6 4
21 11 3
21 12 4
21 13 3
21 14 4
21 15 4
21 17 4
21 19 3
21 20 4
22 0 2
22 1 1
22 2 2
22 3 1
22 7 1
22 8 2
22 9 4
22 12 1
22 14 3
22 15 1
22 16 4
22 17 2
23 1 2
23 3 2
23 5 2
23 7 2
23 9 2
23 12 1
23 13 1
23 19 3
23 20 4
23 21 4
23 22 1
24 2 2
24 3 4
24 8 2
24 9 2
24 10 2
24 11 1
24 14 2
24 15 2
24 16 3
24 18 1
24 19 3
25 0 4
25 1 1
25 3 2
25 5 4
25 7 3
25 8 4
25 9 1
25 13 2
25 19 3
25 20 2
25 24 2
26 1 1
26 3 3
26 5 2
26 6 1
26 9 1
26 11 4
26 15 3
26 17 2
26 18 4
26 19 3
26 20 4
26 21 4
26 22 3
26 24 3
27 3 2
27 4 4
27 5 4
27 8 4
27 9 4
27 12 4
27 14 4
27 16 3
27 17 3
27 19 2
27 20 2
27 22 1
27 23 4
27 26 4
28 0 1
28 1 1
28 8 2
28 9 1
28 15 2
28 16 4
28 19 1
28 20 1
28 21 2
28 26 3
29 0 3
29 1 2
29 4 1
29 6 1
29 7 2
29 8 3
29 11 2
29 13 3
29 14 4
29 16 3
29 17 4
29 18 4
29 20 1
29 22 3
29 25 2
29 26 2
